10
0 1 1 2 2 4 4 6 6 7
1 0 2 2 2 4 4 6 6 7
1 2 0 4 4 5 5 6 6 7
2 2 4 0 2 2 3 3 3 3
2 2 4 2 0 1 3 5 5 6
4 4 5 2 1 0 2 6 6 7
4 4 5 3 3 2 0 8 8 9
6 6 6 3 5 6 8 0 1 1
6 6 6 3 5 6 8 1 0 1
7 7 7 3 6 7 9 1 1 0